Route #1: 17 51 16 63 23 56 41 64 42 43 1 73 33
Route #2: 49 24 18 50 25 55 31 38 65 66 11
Route #3: 12 40 3 44 32 9 39 72 10 58 26
Route #4: 7 35 53 14 59 19 8 46 34 52 27
Route #5: 54 13 57 15 37 20 70 60 71 69 36 47 5 29 45
Route #6: 30 48 21 61 22 62 28 74 2 6
Route #7: 67 4 68 75
Cost 717